% File represents an instance of a Composite Structure problem to be solved by a CP framework
% Created on 2025-03-26 10:42:06.332
T = 52;
n = 36;
m = 60;
edges = [(1, 2),
(7, 8),
(14, 13),
(19, 20),
(25, 26),
(31, 32),
(3, 2),
(8, 9),
(14, 15),
(20, 21),
(26, 27),
(32, 33),
(4, 3),
(10, 9),
(16, 15),
(22, 21),
(27, 28),
(33, 34),
(5, 4),
(11, 10),
(16, 17),
(23, 22),
(28, 29),
(34, 35),
(5, 6),
(11, 12),
(17, 18),
(23, 24),
(30, 29),
(36, 35),
(7, 1),
(7, 13),
(19, 13),
(25, 19),
(31, 25),
(8, 2),
(14, 8),
(14, 20),
(26, 20),
(32, 26),
(3, 9),
(15, 9),
(15, 21),
(27, 21),
(33, 27),
(4, 10),
(16, 10),
(16, 22),
(22, 28),
(34, 28),
(5, 11),
(11, 17),
(23, 17),
(23, 29),
(35, 29),
(6, 12),
(12, 18),
(24, 18),
(30, 24),
(36, 30)];
counts = [|8, 18, 8, 2,
|8, 16, 8, 2,
|8, 16, 8, 4,
|10, 16, 10, 6,
|10, 18, 10, 8,
|10, 16, 10, 8,
|8, 18, 8, 8,
|8, 16, 8, 8,
|8, 14, 8, 4,
|8, 14, 8, 6,
|10, 14, 10, 8,
|10, 14, 10, 6,
|8, 16, 8, 8,
|8, 16, 8, 10,
|8, 14, 8, 10,
|8, 16, 8, 10,
|8, 14, 8, 8,
|8, 14, 8, 6,
|8, 20, 8, 8,
|8, 16, 8, 6,
|8, 14, 8, 4,
|8, 16, 8, 6,
|8, 16, 8, 8,
|8, 14, 8, 8,
|10, 20, 10, 8,
|10, 18, 10, 6,
|8, 18, 8, 4,
|8, 16, 8, 4,
|8, 16, 8, 2,
|8, 16, 8, 8,
|12, 20, 12, 8,
|12, 20, 12, 6,
|10, 20, 10, 4,
|10, 18, 10, 4,
|8, 16, 8, 4,
|8, 18, 8, 8|];
